# Objective value = 38.0
xobj 38.0
x0_r1 7.22078646875346e-17
x1_r1 -0.0
x2_r1 1.2400562347802957e-17
x3_r1 1.2400562347802957e-17
y0_r1 -0.0
y1_r1 -0.0
y2_r1 7.201812930734963e-17
y3_r1 -0.0
SH0_r1 1.2400562347802957e-17
SL0_r1 -0.0
x4_r1 0.0
x5_r1 4.548228113576691e-17
x6_r1 0.0
x7_r1 0.0
y4_r1 -4.548228113576691e-17
y5_r1 3.126839065448195e-16
y6_r1 -0.0
y7_r1 1.0787811616230769e-16
SH1_r1 -0.0
SL1_r1 -0.0
x8_r1 -6.589238703280653e-17
x9_r1 -0.0
x10_r1 4.358492733391728e-17
x11_r1 4.347650711666873e-17
y8_r1 2.0952206983282373e-17
y9_r1 3.7339922820400773e-16
y10_r1 1.0820337681405334e-16
y11_r1 -1.0787811616230769e-16
SH2_r1 4.3530717225293e-17
SL2_r1 -0.0
x12_r1 -1.6002824065886045e-16
x13_r1 -2.6346112791397758e-17
x14_r1 6.938893903907228e-18
x15_r1 -1.940721888749053e-17
y12_r1 -6.548581121812447e-17
y13_r1 2.8189256484623115e-16
y14_r1 -0.0
y15_r1 -0.0
SH3_r1 -1.940721888749053e-17
SL3_r1 -0.0
x16_r1 -0.0
x17_r1 1.765623237892644e-16
x18_r1 -0.0
x19_r1 -0.0
y16_r1 0.0
y17_r1 -5.959859342152818e-16
y18_r1 -1.765623237892644e-16
y19_r1 -1.648637823481458e-15
SH4_r1 -0.0
SL4_r1 -0.0
x20_r1 -0.0
x21_r1 -0.0
x22_r1 -5.959859342152818e-16
x23_r1 -0.0
y20_r1 0.0
y21_r1 1.1919718684305636e-15
y22_r1 -0.0
y23_r1 -0.0
SH5_r1 -0.0
SL5_r1 -0.0
x24_r1 0.0
x25_r1 0.0
x26_r1 -1.1427490897997217e-16
x27_r1 0.0
y24_r1 0.0
y25_r1 5.959859342152818e-16
y26_r1 1.5471565001368148e-16
y27_r1 -0.0
SH6_r1 -0.0
SL6_r1 -0.0
x28_r1 -0.0
x29_r1 -0.0
x30_r1 2.0778734635684692e-16
x31_r1 -0.0
y28_r1 7.155056712046526e-17
y29_r1 5.957690937807847e-16
y30_r1 -0.0
y31_r1 -0.0
SH7_r1 7.15776721747774e-17
SL7_r1 -0.0
x32_r1 -3.704583298111408e-17
x33_r1 -1.204250458033962e-15
x34_r1 7.385585198971256e-16
x35_r1 -4.81196029203379e-16
y32_r1 -8.531993471103116e-17
y33_r1 -0.0
y34_r1 -6.900946827870236e-17
y35_r1 -0.0
SH8_r1 0.0
SL8_r1 -0.0
x36_r1 -0.0
x37_r1 -0.0
x38_r1 -0.0
x39_r1 7.529784087911828e-17
y36_r1 4.897883314203266e-17
y37_r1 -6.36799369745783e-18
y38_r1 -2.544063457078291e-17
y39_r1 0.0
SH9_r1 0.0
SL9_r1 -0.0
x40_r1 -0.0
x41_r1 -0.0
x42_r1 -0.0
x43_r1 -0.0
y40_r1 -0.0
y41_r1 -0.0
y42_r1 -0.0
y43_r1 -0.0
SH10_r1 -0.0
SL10_r1 -0.0
x44_r1 -0.0
x45_r1 -0.0
x46_r1 1.1145598333150986e-16
x47_r1 -0.0
y44_r1 2.3619344327596714e-16
y45_r1 -1.330316065639714e-16
y46_r1 5.87366526944022e-17
y47_r1 6.044427111606687e-17
SH11_r1 6.045782364322294e-17
SL11_r1 -0.0
x48_r1 -0.0
x49_r1 -0.0
x50_r1 -2.1277467635028025e-18
x51_r1 -2.1277467635028025e-18
y48_r1 -0.0
y49_r1 -0.0
y50_r1 -0.0
y51_r1 -2.1277467635028025e-18
SH12_r1 -2.995108501491206e-18
SL12_r1 -0.0
x52_r1 -0.0
x53_r1 2.246013738763184e-18
x54_r1 3.792674724625855e-17
x55_r1 3.7476125718319264e-17
y52_r1 -0.0
y53_r1 -0.0
y54_r1 0.0
y55_r1 2.6908542668374613e-17
SH13_r1 2.6908542668374613e-17
SL13_r1 -0.0
x56_r1 -0.0
x57_r1 -0.0
x58_r1 6.776263578034403e-20
x59_r1 -2.5383883363316873e-17
y56_r1 -1.8214596497756474e-17
y57_r1 -3.9763114675905875e-17
y58_r1 -9.475926987523309e-17
y59_r1 -2.5383883363316873e-17
SH14_r1 -2.5383883363316873e-17
SL14_r1 -0.0
x60_r1 0.0
x61_r1 1.0
x62_r1 1.0
x63_r1 1.0
y60_r1 -0.0
y61_r1 -0.0
y62_r1 0.0
y63_r1 1.0
SH15_r1 1.0
SL15_r1 -0.0
y0_r2 -0.0
y1_r2 1.347663300399482e-16
y2_r2 -0.0
y3_r2 4.2134806928217916e-17
SH0_r2 4.212125440106185e-17
SL0_r2 -0.0
y4_r2 -0.0
y5_r2 1.347663300399482e-16
y6_r2 0.0
y7_r2 -6.396792817664476e-18
SH1_r2 -6.396792817664476e-18
SL1_r2 -1.16605943650816e-16
y8_r2 -0.0
y9_r2 1.347663300399482e-16
y10_r2 -3.4269894254724924e-18
y11_r2 -3.38000027272356e-17
SH2_r2 6.293793611278353e-17
SL2_r2 -1.920664148558071e-16
y12_r2 -0.0
y13_r2 1.3482054014857248e-16
y14_r2 0.0
y15_r2 -0.0
SH3_r2 6.918565113173125e-18
SL3_r2 -0.0
y16_r2 -0.0
y17_r2 -2.9422536455825377e-17
y18_r2 -4.0657581468206416e-16
y19_r2 0.0
SH4_r2 -0.0
SL4_r2 -0.0
y20_r2 -0.0
y21_r2 -0.0
y22_r2 -0.0
y23_r2 0.0
SH5_r2 -0.0
SL5_r2 -0.0
y24_r2 -0.0
y25_r2 -0.0
y26_r2 1.9927635930283571e-16
y27_r2 3.480288973678469e-17
SH6_r2 3.133344278483108e-17
SL6_r2 -0.0
y28_r2 -0.0
y29_r2 0.0
y30_r2 -0.0
y31_r2 -0.0
SH7_r2 0.0
SL7_r2 -0.0
y32_r2 -0.0
y33_r2 -0.0
y34_r2 0.0
y35_r2 0.0
SH8_r2 -0.0
SL8_r2 -0.0
y36_r2 -0.0
y37_r2 2.4984083812212843e-17
y38_r2 2.3201926491189795e-17
y39_r2 -0.0
SH9_r2 -0.0
SL9_r2 -0.0
y40_r2 -0.0
y41_r2 -2.4984083812212843e-17
y42_r2 -5.637851296924623e-17
y43_r2 0.0
SH10_r2 -0.0
SL10_r2 -9.283481101907132e-18
y44_r2 -0.0
y45_r2 2.0095687267018825e-16
y46_r2 0.0
y47_r2 -6.364266752489911e-17
SH11_r2 -0.0
SL11_r2 -2.0925101928970236e-17
y48_r2 -0.0
y49_r2 -5.5348520905385e-17
y50_r2 3.2829641782861074e-16
y51_r2 -0.0
SH12_r2 0.0
SL12_r2 -0.0
y52_r2 -4.318512778281325e-17
y53_r2 -1.5617932294653691e-15
y54_r2 -0.0
y55_r2 -3.1265680149050734e-16
SH13_r2 -3.1265680149050734e-16
SL13_r2 -0.0
y56_r2 -0.0
y57_r2 -6.044427111606687e-17
y58_r2 -0.0
y59_r2 0.0
SH14_r2 -0.0
SL14_r2 -0.0
y60_r2 0.9999999999999999
y61_r2 -5.87366526944022e-17
y62_r2 2.864326614435142e-17
y63_r2 1.0000000000000002
SH15_r2 1.0
SL15_r2 3.0499962364732847e-17
y0_r3 -0.0
y1_r3 -0.0
y2_r3 -0.0
y3_r3 -0.0
SH0_r3 -0.0
SL0_r3 -0.0
y4_r3 -0.0
y5_r3 -0.0
y6_r3 -0.0
y7_r3 -0.0
SH1_r3 -0.0
SL1_r3 -0.0
y8_r3 -0.0
y9_r3 -0.0
y10_r3 -0.0
y11_r3 -0.0
SH2_r3 -0.0
SL2_r3 -0.0
y12_r3 1.0
y13_r3 4.318173965102423e-17
y14_r3 0.0
y15_r3 1.0
SH3_r3 1.0
SL3_r3 -8.63702555656265e-17
y16_r3 8.890457814381136e-16
y17_r3 1.3156793363111596e-16
y18_r3 -0.0
y19_r3 -0.0
SH4_r3 1.3482054014857248e-16
SL4_r3 -0.0
y20_r3 -9.18861341181465e-18
y21_r3 -6.789816105190472e-17
y22_r3 -9.18861341181465e-18
y23_r3 -0.0
SH5_r3 -9.18861341181465e-18
SL5_r3 -9.18861341181465e-18
y24_r3 -0.0
y25_r3 -2.5370330836160804e-16
y26_r3 -0.0
y27_r3 -0.0
SH6_r3 -0.0
SL6_r3 -0.0
y28_r3 -1.8661287792820502e-15
y29_r3 -8.508276548579996e-17
y30_r3 -2.2971533529536625e-18
y31_r3 -0.0
SH7_r3 -6.044427111606687e-17
SL7_r3 -0.0
y32_r3 7.244884556102844e-18
y33_r3 -0.0
y34_r3 2.9933085564782906e-18
y35_r3 -0.0
SH8_r3 -0.0
SL8_r3 0.0
y36_r3 -1.452830911130576e-16
y37_r3 -6.765421556309548e-17
y38_r3 1.0028870095490916e-16
y39_r3 -0.0
SH9_r3 -1.0847442735717472e-16
SL9_r3 -0.0
y40_r3 1.43982048506075e-16
y41_r3 0.0
y42_r3 3.5758342901287543e-17
y43_r3 -0.0
SH10_r3 -0.0
SL10_r3 -0.0
y44_r3 -1.13258469443267e-16
y45_r3 1.1584700213007615e-16
y46_r3 1.3048373145863046e-16
y47_r3 -0.0
SH11_r3 2.864326614435142e-17
SL11_r3 -0.0
y48_r3 -1.2896584841715075e-15
y49_r3 6.584359793504468e-16
y50_r3 8.241291763605441e-16
y51_r3 7.059240345053119e-16
SH12_r3 7.058156142880634e-16
SL12_r3 -0.0
y52_r3 3.332295377134198e-16
y53_r3 8.657354347296753e-17
y54_r3 2.1903594389638403e-16
y55_r3 -2.65317824134359e-16
SH13_r3 -2.65317824134359e-16
SL13_r3 -0.0
y56_r3 -6.315477654728063e-17
y57_r3 1.7553233172540317e-16
y58_r3 6.711211447685272e-17
y59_r3 -0.0
SH14_r3 0.0
SL14_r3 -0.0
y60_r3 1.0000000000000007
y61_r3 -0.0
y62_r3 1.9000643072808465e-17
y63_r3 0.9999999999999997
SH15_r3 0.9999999999999997
SL15_r3 -0.0
y0_r4 0.9999999999999999
y1_r4 0.0
y2_r4 0.0
y3_r4 1.0
SH0_r4 1.0
SL0_r4 -0.0
y4_r4 2.3852447794681098e-17
y5_r4 -6.938893903907228e-18
y6_r4 2.080583968999683e-16
y7_r4 6.151763126682752e-16
SH1_r4 2.089257586379567e-16
SL1_r4 -0.0
y8_r4 -7.936359902593892e-17
y9_r4 -0.0
y10_r4 -1.5439038936193583e-16
y11_r4 -6.430165915786296e-17
SH2_r4 -6.430165915786296e-17
SL2_r4 -0.0
y12_r4 1.0
y13_r4 1.3877787807814457e-17
y14_r4 3.003240017784847e-17
y15_r4 1.0000000000000007
SH3_r4 1.0000000000000007
SL3_r4 -0.0
y16_r4 -0.0
y17_r4 0.0
y18_r4 1.4096322308206066e-17
y19_r4 -0.0
SH4_r4 1.415053241683034e-17
SL4_r4 -0.0
y20_r4 -0.0
y21_r4 3.6326193789126826e-16
y22_r4 -2.7586169026178053e-17
y23_r4 -0.0
SH5_r4 -2.7582780894389036e-17
SL5_r4 -6.303280380287601e-17
y24_r4 -0.0
y25_r4 6.678685382510707e-17
y26_r4 -0.0
y27_r4 0.0
SH6_r4 -0.0
SL6_r4 -4.381532029557045e-17
y28_r4 -0.0
y29_r4 -4.954803928258755e-16
y30_r4 0.0
y31_r4 -0.0
SH7_r4 3.1722400314210253e-16
SL7_r4 -0.0
y32_r4 -0.0
y33_r4 3.575319294096824e-15
y34_r4 0.0
y35_r4 -1.4501204056993622e-16
SH8_r4 -0.0
SL8_r4 -0.0
y36_r4 -0.0
y37_r4 -0.0
y38_r4 -0.0
y39_r4 -0.0
SH9_r4 -2.2971533529536625e-18
SL9_r4 -0.0
y40_r4 6.25964124284506e-16
y41_r4 -6.887394300714167e-16
y42_r4 -0.0
y43_r4 -0.0
SH10_r4 -0.0
SL10_r4 -0.0
y44_r4 -0.0
y45_r4 2.0751629581372555e-16
y46_r4 0.0
y47_r4 -4.587259391786169e-16
SH11_r4 2.5939536976715694e-17
SL11_r4 -0.0
y48_r4 1.0
y49_r4 -2.7221606045679803e-16
y50_r4 -0.0
y51_r4 1.0
SH12_r4 1.0
SL12_r4 -0.0
y52_r4 -0.0
y53_r4 -0.0
y54_r4 -0.0
y55_r4 -0.0
SH13_r4 -0.0
SL13_r4 -0.0
y56_r4 -0.0
y57_r4 -0.0
y58_r4 -0.0
y59_r4 -0.0
SH14_r4 -0.0
SL14_r4 -0.0
y60_r4 0.9999999999999993
y61_r4 -2.8614805837323676e-16
y62_r4 0.0
y63_r4 1.0000000000000002
SH15_r4 1.0
SL15_r4 -1.1437147073595916e-16
y0_r5 -0.0
y1_r5 1.0
y2_r5 -0.0
y3_r5 -0.0
SH0_r5 1.0
SL0_r5 -0.0
y4_r5 -0.0
y5_r5 -0.0
y6_r5 -0.0
y7_r5 -0.0
SH1_r5 -0.0
SL1_r5 -0.0
y8_r5 -0.0
y9_r5 0.0
y10_r5 -0.0
y11_r5 6.25964124284506e-16
SH2_r5 -0.0
SL2_r5 -0.0
y12_r5 0.0
y13_r5 1.0
y14_r5 -0.0
y15_r5 -0.0
SH3_r5 1.0
SL3_r5 0.0
y16_r5 -0.0
y17_r5 -2.7755575615628914e-17
y18_r5 -0.0
y19_r5 0.0
SH4_r5 -6.938893903907228e-18
SL4_r5 -0.0
y20_r5 -3.7448343037649323e-16
y21_r5 0.0
y22_r5 -0.0
y23_r5 0.0
SH5_r5 -0.0
SL5_r5 -0.0
y24_r5 -0.0
y25_r5 -2.886579864025407e-15
y26_r5 -0.0
y27_r5 0.0
SH6_r5 -0.0
SL6_r5 -0.0
y28_r5 -3.7448343037649323e-16
y29_r5 -0.0
y30_r5 -0.0
y31_r5 -0.0
SH7_r5 -2.7920916446932953e-16
SL7_r5 -0.0
y32_r5 -6.635317295611287e-17
y33_r5 0.0
y34_r5 0.0
y35_r5 -3.003240017784847e-17
SH8_r5 -0.0
SL8_r5 -0.0
y36_r5 2.5319508859325546e-17
y37_r5 0.0
y38_r5 -0.0
y39_r5 0.0
SH9_r5 -0.0
SL9_r5 -3.574690795649961e-18
y40_r5 -4.85722573273506e-16
y41_r5 0.0
y42_r5 0.0
y43_r5 -1.214306433183765e-16
SH10_r5 -0.0
SL10_r5 -0.0
y44_r5 -0.0
y45_r5 -0.0
y46_r5 0.0
y47_r5 0.0
SH11_r5 -0.0
SL11_r5 0.0
y48_r5 1.3444106938820255e-17
y49_r5 0.9999999999999999
y50_r5 2.556413197449259e-16
y51_r5 0.0
SH12_r5 1.0000000000000002
SL12_r5 -0.0
y52_r5 -0.0
y53_r5 0.0
y54_r5 -0.0
y55_r5 -0.0
SH13_r5 0.0
SL13_r5 -0.0
y56_r5 -0.0
y57_r5 -0.0
y58_r5 -4.854515227303846e-16
y59_r5 4.535353212778426e-17
SH14_r5 -1.4501204056993622e-16
SL14_r5 -0.0
y60_r5 -8.618729644901957e-17
y61_r5 1.0
y62_r5 2.556413197449259e-16
y63_r5 0.0
SH15_r5 1.0
SL15_r5 -3.9424301497004155e-17
y0_r6 -0.0
y1_r6 -0.0
y2_r6 -0.0
y3_r6 -0.0
SH0_r6 0.0
SL0_r6 -0.0
y4_r6 -0.0
y5_r6 6.418476861114186e-17
y6_r6 -0.0
y7_r6 5.984795992119984e-16
SH1_r6 -0.0
SL1_r6 -0.0
y8_r6 -0.0
y9_r6 -0.0
y10_r6 -0.0
y11_r6 -3.187554387107383e-17
SH2_r6 -6.635317295611287e-17
SL2_r6 -0.0
y12_r6 -0.0
y13_r6 1.960237527853792e-16
y14_r6 -0.0
y15_r6 -0.0
SH3_r6 -0.0
SL3_r6 -0.0
y16_r6 -0.0
y17_r6 1.0
y18_r6 0.0
y19_r6 0.0
SH4_r6 1.0
SL4_r6 -0.0
y20_r6 -0.0
y21_r6 -2.886579864025407e-15
y22_r6 0.0
y23_r6 -0.0
SH5_r6 -0.0
SL5_r6 -0.0
y24_r6 -0.0
y25_r6 -0.0
y26_r6 0.0
y27_r6 -0.0
SH6_r6 -0.0
SL6_r6 -0.0
y28_r6 2.7647155398380363e-18
y29_r6 0.9999999999999972
y30_r6 0.0
y31_r6 2.927345865710862e-18
SH7_r6 1.0
SL7_r6 -0.0
y32_r6 -0.0
y33_r6 -0.0
y34_r6 -0.0
y35_r6 -0.0
SH8_r6 -0.0
SL8_r6 -0.0
y36_r6 -0.0
y37_r6 0.0
y38_r6 0.0
y39_r6 -0.0
SH9_r6 -0.0
SL9_r6 -0.0
y40_r6 -0.0
y41_r6 -0.0
y42_r6 0.0
y43_r6 -0.0
SH10_r6 0.0
SL10_r6 -0.0
y44_r6 -0.0
y45_r6 4.64255370258293e-16
y46_r6 -0.0
y47_r6 -0.0
SH11_r6 2.556413197449259e-16
SL11_r6 -0.0
y48_r6 0.0
y49_r6 1.5785983631388945e-16
y50_r6 -9.324138683375338e-17
y51_r6 -0.0
SH12_r6 -9.324138683375338e-17
SL12_r6 -0.0
y52_r6 -0.0
y53_r6 -0.0
y54_r6 -0.0
y55_r6 -0.0
SH13_r6 0.0
SL13_r6 -0.0
y56_r6 -0.0
y57_r6 -0.0
y58_r6 9.497611030973019e-17
y59_r6 -0.0
SH14_r6 -0.0
SL14_r6 -0.0
y60_r6 4.579669976578771e-16
y61_r6 9.08995101411847e-16
y62_r6 0.0
y63_r6 1.3010426069826053e-16
SH15_r6 -0.0
SL15_r6 -0.0
y0_r7 -0.0
y1_r7 -0.0
y2_r7 -0.0
y3_r7 -0.0
SH0_r7 -0.0
SL0_r7 -0.0
y4_r7 6.945670167485263e-20
y5_r7 1.6263032587282567e-18
y6_r7 -0.0
y7_r7 -0.0
SH1_r7 3.1170812458958252e-18
SL1_r7 -0.0
y8_r7 -0.0
y9_r7 -0.0
y10_r7 -0.0
y11_r7 -0.0
SH2_r7 -0.0
SL2_r7 -0.0
y12_r7 1.43982048506075e-16
y13_r7 3.469446951953614e-16
y14_r7 0.0
y15_r7 1.1275702593849246e-16
SH3_r7 1.196959198423997e-16
SL3_r7 -0.0
y16_r7 -0.0
y17_r7 6.938893903907228e-16
y18_r7 0.0
y19_r7 2.636779683484747e-16
SH4_r7 2.7755575615628914e-16
SL4_r7 -0.0
y20_r7 0.0
y21_r7 0.9999999999999997
y22_r7 0.0
y23_r7 1.9081958235744878e-16
SH5_r7 1.0
SL5_r7 -0.0
y24_r7 -0.0
y25_r7 -0.0
y26_r7 -1.2374812546206426e-16
y27_r7 -0.0
SH6_r7 1.4213890481284963e-16
SL6_r7 -0.0
y28_r7 4.649058915617843e-16
y29_r7 -5.551115123125783e-16
y30_r7 -0.0
y31_r7 1.5612511283791264e-16
SH7_r7 1.5092094240998222e-16
SL7_r7 -1.5612511283791264e-16
y32_r7 -0.0
y33_r7 -0.0
y34_r7 -0.0
y35_r7 -0.0
SH8_r7 -0.0
SL8_r7 -0.0
y36_r7 3.660266534311063e-16
y37_r7 -3.677613769070831e-16
y38_r7 0.0
y39_r7 -0.0
SH9_r7 -0.0
SL9_r7 -0.0
y40_r7 -0.0
y41_r7 -2.3765711620882257e-16
y42_r7 -0.0
y43_r7 -0.0
SH10_r7 0.0
SL10_r7 -0.0
y44_r7 -4.805184028455756e-16
y45_r7 -0.0
y46_r7 -0.0
y47_r7 0.0
SH11_r7 -0.0
SL11_r7 -0.0
y48_r7 1.5230872119076366e-15
y49_r7 -0.0
y50_r7 7.003946034256359e-17
y51_r7 -0.0
SH12_r7 6.310056643865636e-17
SL12_r7 -5.204170427930421e-16
y52_r7 -9.367506770274758e-17
y53_r7 3.491130995403324e-17
y54_r7 6.245004513516506e-17
y55_r7 0.0
SH13_r7 0.0
SL13_r7 -0.0
y56_r7 -0.0
y57_r7 -0.0
y58_r7 -0.0
y59_r7 -0.0
SH14_r7 -0.0
SL14_r7 -0.0
y60_r7 -0.0
y61_r7 1.1275702593849246e-16
y62_r7 -0.0
y63_r7 -0.0
SH15_r7 3.252606517456513e-17
SL15_r7 -0.0
y0_r8 -0.0
y1_r8 -7.19910242530375e-17
y2_r8 -0.0
y3_r8 -0.0
SH0_r8 -0.0
SL0_r8 -0.0
y4_r8 -1.968911145233676e-16
y5_r8 -5.412337245047638e-16
y6_r8 -0.0
y7_r8 0.0
SH1_r8 -0.0
SL1_r8 -0.0
y8_r8 -1.3877787807814457e-16
y9_r8 -1.9949319973733282e-16
y10_r8 0.0
y11_r8 -0.0
SH2_r8 -0.0
SL2_r8 5.689893001203927e-16
y12_r8 -6.435824095873954e-16
y13_r8 -0.0
y14_r8 -0.0
y15_r8 -0.0
SH3_r8 -0.0
SL3_r8 -0.0
y16_r8 1.734723475976807e-16
y17_r8 -0.0
y18_r8 -1.6479873021779667e-16
y19_r8 -0.0
SH4_r8 0.0
SL4_r8 -0.0
y20_r8 -0.0
y21_r8 1.0
y22_r8 5.273559366969494e-16
y23_r8 1.0
SH5_r8 1.0
SL5_r8 -0.0
y24_r8 -1.240327285323417e-16
y25_r8 -0.0
y26_r8 -0.0
y27_r8 -0.0
SH6_r8 -1.1882855810441129e-16
SL6_r8 -0.0
y28_r8 -0.0
y29_r8 2.168404344971009e-18
y30_r8 -0.0
y31_r8 -0.0
SH7_r8 -9.128982292327947e-17
SL7_r8 -0.0
y32_r8 -0.0
y33_r8 0.0
y34_r8 0.0
y35_r8 0.0
SH8_r8 0.0
SL8_r8 -0.0
y36_r8 -8.673617379884035e-17
y37_r8 0.0
y38_r8 -0.0
y39_r8 0.0
SH9_r8 -0.0
SL9_r8 -0.0
y40_r8 3.111660235033398e-17
y41_r8 -0.0
y42_r8 0.0
y43_r8 -0.0
SH10_r8 -0.0
SL10_r8 -0.0
y44_r8 -6.245004513516506e-17
y45_r8 0.0
y46_r8 -0.0
y47_r8 -0.0
SH11_r8 -0.0
SL11_r8 -0.0
y48_r8 0.0
y49_r8 -0.0
y50_r8 5.160802341031001e-17
y51_r8 0.0
SH12_r8 5.041540102057596e-18
SL12_r8 -0.0
y52_r8 0.0
y53_r8 5.2909066017292616e-17
y54_r8 0.0
y55_r8 0.0
SH13_r8 1.9081958235744878e-16
SL13_r8 -0.0
y56_r8 0.0
y57_r8 -0.0
y58_r8 0.0
y59_r8 -0.0
SH14_r8 -0.0
SL14_r8 0.0
y60_r8 0.0
y61_r8 0.0
y62_r8 -0.0
y63_r8 -0.0
SH15_r8 -0.0
SL15_r8 -0.0
y0_r9 -0.0
y1_r9 -0.0
y2_r9 -0.0
y3_r9 -1.3248950547772864e-16
SH0_r9 -2.1120258320017626e-16
SL0_r9 -0.0
y4_r9 -4.5536491244391186e-17
y5_r9 1.5829351718288365e-16
y6_r9 -9.280770596475918e-17
y7_r9 -2.949029909160572e-17
SH1_r9 0.0
SL1_r9 -0.0
y8_r9 0.0
y9_r9 -0.0
y10_r9 -0.0
y11_r9 -0.0
SH2_r9 0.0
SL2_r9 -0.0
y12_r9 -0.0
y13_r9 -0.0
y14_r9 -0.0
y15_r9 -0.0
SH3_r9 -0.0
SL3_r9 0.0
y16_r9 -0.0
y17_r9 -7.28583859910259e-17
y18_r9 -4.0592529337857286e-16
y19_r9 -0.0
SH4_r9 -1.3877787807814457e-16
SL4_r9 -0.0
y20_r9 -0.0
y21_r9 1.0
y22_r9 1.0
y23_r9 1.0
SH5_r9 1.0
SL5_r9 1.0
y24_r9 0.0
y25_r9 -0.0
y26_r9 -0.0
y27_r9 -0.0
SH6_r9 0.0
SL6_r9 -0.0
y28_r9 -0.0
y29_r9 5.2909066017292616e-17
y30_r9 -0.0
y31_r9 4.2500725161431774e-17
SH7_r9 4.9439619065339e-17
SL7_r9 -0.0
y32_r9 -0.0
y33_r9 0.0
y34_r9 -0.0
y35_r9 -0.0
SH8_r9 0.0
SL8_r9 -0.0
y36_r9 1.214306433183765e-16
y37_r9 -0.0
y38_r9 -0.0
y39_r9 -0.0
SH9_r9 1.6306400674181987e-16
SL9_r9 -0.0
y40_r9 0.0
y41_r9 -0.0
y42_r9 -0.0
y43_r9 -0.0
SH10_r9 0.0
SL10_r9 -0.0
y44_r9 5.160802341031001e-17
y45_r9 4.380176776841438e-17
y46_r9 -0.0
y47_r9 -0.0
SH11_r9 0.0
SL11_r9 -0.0
y48_r9 0.0
y49_r9 -0.0
y50_r9 0.0
y51_r9 -0.0
SH12_r9 -0.0
SL12_r9 -0.0
y52_r9 1.0
y53_r9 1.0
y54_r9 1.0
y55_r9 -0.0
SH13_r9 1.0
SL13_r9 0.9999999999999999
y56_r9 0.0
y57_r9 -0.0
y58_r9 -0.0
y59_r9 -0.0
SH14_r9 -0.0
SL14_r9 -0.0
y60_r9 0.0
y61_r9 0.0
y62_r9 -0.0
y63_r9 -0.0
SH15_r9 -0.0
SL15_r9 -0.0
